32
-1 -1 -1 -1 -1 -1 -1 -1 -1 -1 -1 66 -1 24 -1 -1 -1 -1 -1 -1 -1 42 -1 -1 -1 -1 -1 -1 -1 -1 -1 -1
-1 -1 60 -1 -1 -1 -1 -1 -1 -1 -1 60 -1 -1 -1 -1 42 -1 -1 -1 30 -1 -1 72 30 -1 -1 -1 -1 -1 -1 -1
-1 -1 -1 -1 -1 -1 -1 -1 -1 -1 -1 -1 -1 -1 -1 -1 -1 -1 -1 -1 -1 -1 -1 -1 -1 -1 -1 -1 -1 -1 -1 -1
-1 -1 72 -1 -1 -1 -1 60 -1 -1 -1 72 -1 -1 -1 84 -1 -1 -1 -1 60 -1 -1 -1 -1 -1 -1 48 -1 -1 -1 -1
-1 -1 -1 -1 -1 -1 -1 -1 -1 -1 -1 -1 -1 -1 -1 -1 -1 -1 96 -1 -1 -1 -1 -1 36 -1 -1 -1 -1 36 96 -1
-1 -1 -1 -1 -1 -1 -1 -1 -1 -1 78 18 -1 -1 -1 6 -1 6 -1 78 48 -1 -1 84 -1 54 -1 -1 90 -1 -1 48
-1 -1 -1 -1 30 -1 -1 -1 -1 6 -1 -1 -1 -1 -1 -1 -1 -1 60 -1 -1 -1 -1 -1 30 -1 -1 72 -1 -1 72 -1
66 0 -1 48 66 -1 -1 -1 -1 -1 -1 -1 -1 -1 -1 -1 -1 -1 0 -1 -1 -1 24 -1 -1 -1 -1 -1 -1 -1 -1 -1
-1 -1 -1 -1 -1 -1 -1 -1 -1 -1 -1 -1 -1 -1 -1 -1 -1 -1 18 -1 -1 42 18 -1 -1 -1 -1 -1 84 54 -1 -1
-1 -1 -1 -1 -1 -1 -1 -1 -1 -1 -1 -1 54 48 24 -1 -1 42 -1 -1 -1 -1 -1 -1 -1 48 78 -1 -1 78 -1 -1
-1 -1 54 -1 -1 -1 -1 -1 -1 -1 -1 -1 -1 -1 72 18 -1 -1 -1 0 -1 -1 -1 -1 -1 -1 -1 -1 -1 -1 -1 -1
-1 -1 -1 -1 18 -1 -1 -1 -1 -1 -1 -1 6 66 42 18 90 -1 -1 -1 -1 -1 -1 -1 96 -1 12 -1 -1 -1 78 -1
-1 -1 -1 -1 -1 -1 -1 -1 12 -1 -1 18 -1 -1 -1 -1 84 -1 42 12 -1 -1 -1 -1 -1 -1 -1 -1 -1 -1 36 -1
-1 18 60 -1 -1 -1 0 -1 -1 -1 -1 -1 -1 -1 96 -1 30 -1 -1 -1 48 -1 -1 -1 -1 -1 -1 0 -1 -1 -1 -1
-1 -1 -1 -1 -1 -1 -1 -1 -1 -1 -1 -1 -1 -1 -1 -1 -1 -1 -1 -1 -1 -1 -1 -1 -1 36 -1 -1 -1 -1 -1 -1
-1 -1 -1 -1 -1 -1 -1 -1 -1 -1 -1 -1 60 -1 -1 -1 -1 -1 30 72 54 -1 6 -1 -1 -1 -1 -1 66 -1 -1 -1
72 -1 24 -1 24 -1 -1 -1 -1 -1 -1 -1 -1 -1 -1 96 -1 48 -1 -1 -1 -1 -1 -1 -1 -1 42 -1 -1 -1 -1 -1
-1 -1 72 -1 -1 -1 -1 30 -1 -1 -1 -1 -1 -1 -1 -1 -1 -1 -1 -1 -1 -1 -1 -1 54 -1 -1 -1 72 -1 -1 -1
-1 -1 -1 -1 -1 -1 -1 -1 -1 -1 -1 -1 -1 12 60 -1 -1 -1 -1 -1 48 -1 -1 54 -1 -1 -1 -1 -1 -1 -1 90
-1 -1 -1 -1 -1 -1 -1 -1 -1 -1 -1 -1 -1 96 96 -1 -1 -1 -1 -1 -1 -1 -1 -1 -1 -1 -1 -1 -1 -1 -1 -1
54 -1 -1 -1 30 18 42 -1 -1 78 -1 -1 -1 -1 -1 -1 -1 -1 48 -1 -1 -1 -1 -1 -1 -1 -1 -1 -1 -1 -1 -1
60 -1 -1 90 78 -1 18 -1 -1 -1 -1 -1 -1 -1 66 -1 -1 -1 -1 -1 -1 -1 54 -1 -1 -1 -1 -1 -1 0 60 -1
60 -1 -1 90 12 -1 -1 -1 84 -1 -1 -1 36 -1 -1 -1 -1 -1 -1 -1 36 -1 -1 -1 -1 -1 -1 -1 -1 -1 -1 -1
-1 -1 -1 -1 -1 -1 -1 -1 -1 24 -1 -1 -1 60 -1 -1 -1 -1 -1 -1 -1 24 -1 -1 -1 -1 30 -1 -1 -1 -1 -1
-1 -1 -1 -1 -1 -1 -1 -1 -1 18 0 54 30 -1 -1 -1 -1 12 -1 78 36 -1 -1 -1 -1 -1 -1 -1 -1 -1 -1 36
-1 -1 -1 -1 -1 -1 -1 -1 -1 -1 -1 -1 -1 -1 -1 -1 -1 -1 -1 -1 -1 -1 84 -1 -1 -1 -1 -1 -1 48 -1 -1
42 -1 54 -1 42 -1 -1 -1 -1 54 -1 -1 -1 54 6 84 -1 -1 -1 -1 -1 -1 0 6 -1 -1 -1 -1 -1 -1 -1 -1
-1 -1 42 -1 -1 -1 48 -1 -1 -1 -1 -1 -1 -1 60 -1 -1 -1 -1 -1 -1 -1 -1 -1 42 -1 -1 -1 -1 -1 -1 -1
-1 12 -1 -1 -1 -1 6 -1 24 90 -1 -1 -1 -1 -1 -1 -1 -1 30 -1 30 -1 -1 24 -1 -1 36 24 -1 6 72 -1
-1 -1 -1 -1 -1 -1 -1 -1 -1 12 -1 90 -1 -1 -1 -1 -1 -1 -1 -1 -1 -1 -1 -1 -1 -1 6 -1 -1 -1 -1 66
-1 -1 -1 -1 -1 -1 0 24 -1 -1 -1 -1 -1 -1 -1 -1 -1 -1 -1 -1 -1 78 -1 -1 18 -1 -1 -1 -1 -1 -1 -1
-1 18 -1 42 -1 -1 66 6 -1 -1 -1 -1 -1 -1 -1 -1 -1 -1 -1 -1 -1 -1 36 -1 -1 -1 24 -1 -1 -1 -1 -1
